100
28 93
2 69
25 83
16 93
13 46
26 83
12 31
25 5
2 81
6 3
1 33
5 34
14 18
28 59
6 55
8 14
15 16
21 82
5 3
19 68
23 50
24 37
12 86
19 81
14 65
10 8
12 58
6 15
26 78
3 46
0 62
21 33
27 48
11 82
12 95
5 0
29 58
4 31
3 83
18 15
3 49
17 50
27 66
26 35
12 44
18 30
25 94
12 89
22 83
18 93
15 26
24 75
7 86
10 80
6 20
11 70
11 19
17 81
6 38
2 34
6 98
15 93
22 31
16 87
13 6
3 44
20 78
5 17
18 79
29 35
5 94
25 72
23 78
17 3
19 70
10 51
24 5
18 65
23 79
15 55
9 38
26 18
16 71
10 33
0 34
20 1
4 78
6 45
28 27
19 25
19 37
4 22
17 25
14 83
28 92
0 90
10 89
21 99
4 96
22 11
